Route #1: 120 78 61 80 24 67 150 92 99 86 60 39
Route #2: 145 109 28 79 30
Route #3: 129 49 113 123 136 1 89 66 144 41 88
Route #4: 105 110 14 74
Route #5: 147 65 131 111 125 106 35 32 27 62 101
Route #6: 29 9 139
Route #7: 47 23 40 87 102
Route #8: 141 5 15 149
Route #9: 8 83
Route #10: 117 45 148 98 50 85 76 114 18 97 118 43 151 127 81 37
Route #11: 48 77 135 20 103 44 54 142 73 128
Route #12: 90 33 63 68 138 16 146 130
Route #13: 3 22 96 132 56
Route #14: 52 72 10 51 122 59 70 100 137 91 119 126 116
Route #15: 6 4
Route #16: 26 12
Route #17: 143 2 121 55 112 38 75 58 69 84 71
Route #18: 115 134 94 108 46 133 19 152 93
Route #19: 17 140 31
Route #20: 36 7 11
Route #21: 21
Route #22: 95 25 82 64 104 124 57 53 42
Route #23: 107 13 34
